# Solution for model r3_t9_m9_9
# Finished Task: 9 / 9
# Makespan: 496.0, Total Distance: 578.0, Total Time: 0.2689
# R O S F
0 0 4 0.0 0.0
1 1 9 0.0 0.0
2 2 6 0.0 0.0
3 0 11 301.0 328.0
4 0 3 143.0 181.0
5 2 8 300.0 328.0
6 2 5 78.0 112.0
7 1 10 398.0 432.0
8 2 -1 370.0 398.0
9 1 7 231.0 260.0
10 1 -1 466.0 496.0
11 0 -1 345.0 380.0
